p tw 41 46
1 2
2 13
3 4
4 5
4 11
5 6
6 7
7 8
8 9
9 10
10 31
11 12
12 14
12 29
13 24
14 15
15 16
15 29
16 17
17 18
17 25
18 19
19 20
20 21
21 22
22 23
23 25
23 29
24 35
25 26
26 27
27 28
28 31
29 30
30 31
31 32
32 33
33 34
34 36
35 37
37 38
38 39
38 31
39 40
40 41
41 3
